15873.11,43.87,49.84
17081.72,40.77,46.31
16894.18,41.22,46.83
15521.82,44.87,50.97
15640.83,44.52,50.58
16032.44,43.44,49.34
15018.81,46.37,52.67
14907.21,46.72,53.07
14984.0,46.48,52.8
16202.36,42.98,48.83
16125.8,43.19,49.06
15247.96,45.67,51.88
15465.15,45.03,51.15
15406.79,45.2,51.35
16888.72,41.24,46.84
16985.05,41.0,46.58
16163.25,43.09,48.95
17070.99,40.8,46.34
17507.99,39.78,45.19
14017.05,49.68,56.44
